(set-logic QF_S)
(declare-fun var_0xINPUT_55361 () String)
(assert (and (= (len var_0xINPUT_55361) 0) (= (len var_0xINPUT_55361) 0) (not (= var_0xINPUT_55361 "pVEECEXk2p"))))
(check-sat var_0xINPUT_55361)